NAME          BLANK   
ROWS
 N  OBJROW
 L  R0000000
COLUMNS
    C0000000  OBJROW     -746.         R0000000  63.         
    C0000001  OBJROW     -802.         R0000000  791.        
    C0000002  OBJROW     -343.         R0000000  346.        
    C0000003  OBJROW     -184.         R0000000  342.        
    C0000004  OBJROW     -294.         R0000000  910.        
    C0000005  OBJROW     -536.         R0000000  5.          
    C0000006  OBJROW     -849.         R0000000  95.         
    C0000007  OBJROW     -9.           R0000000  136.        
    C0000008  OBJROW     -145.         R0000000  743.        
    C0000009  OBJROW     -281.         R0000000  933.        
    C0000010  OBJROW     -154.         R0000000  870.        
    C0000011  OBJROW     -480.         R0000000  946.        
    C0000012  OBJROW     -426.         R0000000  832.        
    C0000013  OBJROW     -438.         R0000000  137.        
    C0000014  OBJROW     -945.         R0000000  600.        
    C0000015  OBJROW     -931.         R0000000  231.        
    C0000016  OBJROW     -733.         R0000000  719.        
    C0000017  OBJROW     -845.         R0000000  56.         
    C0000018  OBJROW     -735.         R0000000  478.        
    C0000019  OBJROW     -442.         R0000000  564.        
RHS
    RHS       R0000000  15098.      
BOUNDS
 BV BOUND     C0000000  1.          
 BV BOUND     C0000001  1.          
 BV BOUND     C0000002  1.          
 BV BOUND     C0000003  1.          
 BV BOUND     C0000004  1.          
 BV BOUND     C0000005  1.          
 BV BOUND     C0000006  1.          
 BV BOUND     C0000007  1.          
 BV BOUND     C0000008  1.          
 BV BOUND     C0000009  1.          
 BV BOUND     C0000010  1.          
 BV BOUND     C0000011  1.          
 BV BOUND     C0000012  1.          
 BV BOUND     C0000013  1.          
 BV BOUND     C0000014  1.          
 BV BOUND     C0000015  1.          
 BV BOUND     C0000016  1.          
 BV BOUND     C0000017  1.          
 BV BOUND     C0000018  1.          
 BV BOUND     C0000019  1.          
ENDATA
